c --- [ banner ] -------------------------------------------------------------
c 
c CaDiCaL Radically Simplified CDCL SAT Solver
c Copyright (c) 2016-2019 Armin Biere, JKU Linz
c 
c Version 1.2.1 92d72896c49b30ad2d50c8e1061ca0681cd23e60
c g++ (GCC) 8.3.1 20190223 (Red Hat 8.3.1-2) -Wall -Wextra -O3 -DNDEBUG
c Mon Dec 9 12:07:29 EST 2019 Linux istanbul 5.0.16-100.fc28.x86_64 x86_64
c 
c --- [ limit ] --------------------------------------------------------------
c 
c setting time limit to 129600 seconds real time
c 
c --- [ parsing input ] ------------------------------------------------------
c 
c reading DIMACS file from './cnfs/toughsat_23bits_0.cnf'
c opening file to read './cnfs/toughsat_23bits_0.cnf'
c found 'p cnf 679 18589' header
c parsed 18589 clauses in 0.02 seconds process time
c closing file './cnfs/toughsat_23bits_0.cnf'
c after reading 580587 bytes 0.6 MB
c 
c --- [ options ] ------------------------------------------------------------
c 
c   --profile=4                    (different from default '2')
c 
c --- [ solving ] ------------------------------------------------------------
c 
c time measured in process time since initialization
c 
c  seconds  reductions  redundant  irredundant
c         MB    restarts       trail     variables
c          level   conflicts       glue      remaining
c 
c *  0.02  5  0 0   0    0    0  0% 0 18374 674 99%
c {  0.02  6  0 0   0    0    0  0% 0 18374 674 99%
c i  0.03  6 23 0   3  132  121 12% 6 18374 673 99%
c -  0.03  6 39 1  10  301  271 28% 6 17671 673 99%
c i  0.04  6 41 1  32  675  593 28% 6 17671 670 99%
c -  0.05  7 35 2  46  901  714 26% 6 17562 670 99%
c }  0.06  7 35 2  69 1002  809 26% 6 17562 670 99%
c [  0.06  7  0 2  69 1002  809  0% 0 17562 670 99%
c O  0.06  7 40 2  69 1003  810 43% 5 17562 670 99%
c -  0.11  7 21 3  69 1802 1364 70% 8 17562 670 99%
c ]  0.18  7 24 3  70 3002 2501 70% 10 17562 670 99%
c {  0.18  7 35 3  70 3002 2501 26% 6 17562 670 99%
c -  0.19  7 35 4  71 3002 1943 26% 6 17562 670 99%
c F  0.19  7 35 4  71 3005 1946 26% 6 17562 670 99%
c i  0.21  7 34 4 130 3688 2563 32% 6 17562 667 98%
c -  0.23  7 31 5 177 4505 2433 31% 6 17469 667 98%
c d  0.25  7 31 5 190 5001 2873 30% 6 17293 660 97%
c 3  0.25  7 31 5 190 5001 2980 30% 6 17291 660 97%
c p  0.25  7 31 5 190 5001 3064 30% 6 17267 654 96%
c #  0.29  7 30 5 311 6007 3940 29% 6 17267 654 96%
c 
c  seconds  reductions  redundant  irredundant
c         MB    restarts       trail     variables
c          level   conflicts       glue      remaining
c 
c -  0.30  8 30 6 333 6305 3319 28% 6 17203 654 96%
c }  0.33  8 29 6 390 7003 3943 27% 6 17203 654 96%
c [  0.33  8 24 6 390 7003 3943 70% 10 17203 654 96%
c -  0.40  9 26 7 391 8406 4273 64% 10 17203 654 96%
c s  0.49  9 27 7 392 9540 5093 64% 10 16899 654 96%
c v  0.65  9 27 7 392 9540 5093 64% 10 16349 654 96%
c w  0.69  9 27 7 392 9540 5053 64% 10 16349 648 95%
c t  0.69  9 27 7 392 9540 5051 64% 10 16347 648 95%
c e  0.73  9 27 7 392 9540 5046 64% 10 16265 647 95%
c s  0.74  9 27 7 392 9540 5042 64% 10 16235 647 95%
c I  0.78  9 27 7 392 10009 5493 64% 9 16235 647 95%
c -  0.81  8 27 8 393 10809 4848 61% 9 16235 647 95%
c -  0.97  9 27 9 395 13511 5466 52% 11 16235 647 95%
c ]  1.04  9 27 9 395 15003 6744 50% 11 16235 647 95%
c {  1.04  9 29 9 395 15003 6744 27% 6 16235 647 95%
c 3  1.04  7 29 9 396 15003 6876 27% 6 16235 647 95%
c 2  1.04  7 29 9 396 15003 6958 27% 6 16235 647 95%
c p  1.04  7 29 9 396 15003 6980 27% 6 16235 647 95%
c B  1.05  7 29 9 398 15010 6987 27% 6 16235 647 95%
c i  1.08  7 27 9 495 16241 8040 25% 6 16235 646 95%
c 
c  seconds  reductions    redundant  irredundant
c         MB     restarts        trail     variables
c          level     conflicts       glue      remaining
c 
c -  1.09  7 26 10 503 16512 5981 24% 6 16187 646 95%
c i  1.10  7 26 10 510 16585 6033 24% 6 16187 644 95%
c i  1.11  7 25 10 557 17003 6389 23% 6 16187 643 95%
c i  1.14  7 24 10 615 17802 7094 25% 6 16187 640 94%
c i  1.17  7 23 10 676 18454 7656 26% 6 16187 639 94%
c i  1.17  7 23 10 681 18620 7795 26% 6 16187 638 94%
c i  1.17  7 23 10 682 18622 7796 26% 6 16187 637 94%
c i  1.21  7 23 10 802 19476 8580 25% 6 16187 636 94%
c -  1.23  7 22 11 884 19814 6317 25% 7 15824 636 94%
c W  1.31  7 21 11 1142 21015 7385 25% 7 15824 636 94%
c -  1.40  8 21 12 1362 23414 7891 25% 7 15824 636 94%
c -  1.59  9 19 13 1887 27314 9150 24% 7 15824 636 94%
c F  1.62  9 19 13 1892 28017 9769 24% 7 15824 636 94%
c s  1.65  9 19 13 1897 28137 9869 24% 7 15738 636 94%
c v  1.80  9 19 13 1897 28137 9869 24% 7 15400 636 94%
c w  1.84  9 19 13 1897 28137 9759 24% 7 15400 636 94%
c t  1.84  9 19 13 1897 28137 9755 24% 7 15399 636 94%
c e  1.87  9 19 13 1897 28137 9389 24% 7 15388 624 92%
c s  1.89  9 19 13 1897 28137 8946 24% 7 15305 624 92%
c e  1.90  9 19 13 1897 28137 8328 24% 7 15302 623 92%
c 
c  seconds  reductions      redundant  irredundant
c         MB     restarts          trail     variables
c          level      conflicts        glue      remaining
c 
c 3  1.97  9 19 13 1968 30004 10147 25% 7 15302 623 92%
c d  1.97  9 19 13 1968 30004 10205 25% 7 15301 622 92%
c 2  1.97  9 19 13 1968 30004 10203 25% 7 15301 622 92%
c p  1.98  9 19 13 1968 30004 10219 25% 7 15301 622 92%
c }  2.00  9 19 13 1968 31003 11068 25% 7 15301 622 92%
c [  2.00  9 27 13 1968 31003 11068 50% 11 15301 622 92%
c -  2.03  9 26 14 1968 31514 9213 51% 11 15301 622 92%
c -  2.32  9 25 15 1971 36014 11199 54% 10 15301 622 92%
c B  2.32  9 25 15 1971 36018 11203 54% 10 15301 622 92%
c -  2.63  9 24 16 1974 40814 11992 53% 10 15301 622 92%
c W  2.95  9 22 16 1975 45020 15652 52% 9 15301 622 92%
c -  3.01  9 22 17 1976 45915 12572 52% 9 15301 622 92%
c 3  3.29  9 21 17 1976 50007 15914 51% 10 15301 622 92%
c p  3.29  9 21 17 1976 50007 15978 51% 10 15300 621 91%
c -  3.39  9 21 18 1976 51316 12901 50% 10 15300 621 91%
c O  3.68  9 20 18 1977 55022 15824 50% 10 15300 621 91%
c s  3.78  9 20 18 1978 55849 16588 51% 10 15289 621 91%
c v  3.97  9 20 18 1978 55849 16588 51% 10 15150 621 91%
c w  4.06 10 20 18 1978 55849 16567 51% 10 15150 621 91%
c -  4.17 10 20 19 1979 57016 13376 51% 10 15150 621 91%
c 
c  seconds  reductions      redundant   irredundant
c         MB     restarts          trail      variables
c          level      conflicts        glue       remaining
c 
c ]  4.62 10 20 19 1983 63005 18798 52% 10 15150 621 91%
c {  4.62 10 19 19 1983 63005 18798 25% 7 15150 621 91%
c -  4.62 10 19 20 1984 63019 14978 25% 7 15150 621 91%
c B  4.78 10 20 20 2365 66023 17694 27% 7 15150 621 91%
c -  4.93 10 21 21 2547 69320 16269 28% 7 15150 621 91%
c d  5.24 10 21 21 3097 75007 21280 28% 7 15147 620 91%
c p  5.25 10 21 21 3097 75007 21441 28% 7 15147 620 91%
c -  5.31 10 21 22 3215 75921 17565 28% 7 15147 620 91%
c W  5.45 10 20 22 3407 78025 19427 29% 7 15147 620 91%
c -  5.75 12 20 23 3976 82822 18818 29% 7 15147 620 91%
c i  5.79 12 19 23 3976 84223 19606 29% 7 15147 619 91%
c -  6.16 13 19 24 4721 90022 18966 29% 7 15106 619 91%
c #  6.22 13 20 24 4794 91026 19892 29% 7 15106 619 91%
c s  6.36 14 20 24 4887 92718 20688 29% 7 15053 619 91%
c v  6.55 14 20 24 4887 92718 20688 29% 7 14987 619 91%
c w  6.63 14 20 24 4887 92718 20648 29% 7 14987 619 91%
c e  6.66 14 20 24 4887 92718 20409 29% 7 14989 618 91%
c s  6.67 14 20 24 4887 92718 20396 29% 7 14989 618 91%
c -  7.01 12 20 25 5574 97522 20791 30% 8 14989 618 91%
c 3  7.51 12 19 25 6433 105007 27317 29% 8 14989 618 91%
c 
c  seconds  reductions       redundant  irredundant
c         MB     restarts           trail     variables
c          level      conflicts         glue      remaining
c 
c 3  7.51 12 19 25 6433 105007 27372 29% 8 14989 618 91%
c p  7.52 12 19 25 6433 105007 27429 29% 8 14989 615 91%
c B  7.52 12 19 25 6433 105028 27447 29% 8 14989 615 91%
c -  7.56 12 19 26 6486 105323 22196 30% 8 14951 615 91%
c -  8.16 12 19 27 7182 113424 23857 31% 8 14951 615 91%
c W  8.73 12 19 27 7773 120030 29893 33% 8 14951 615 91%
c -  8.85 12 19 28 7897 121825 25836 33% 8 14951 615 91%
c }  9.19 12 19 28 8357 127005 30469 33% 8 14951 615 91%
c [  9.19 12 20 28 8357 127005 30469 52% 10 14951 615 91%
c -  9.52 13 20 29 8358 130526 27589 52% 9 14951 615 91%
c B  9.87 13 20 29 8362 136031 32090 49% 10 14951 615 91%
c s 10.24 13 20 29 8364 138720 33306 50% 10 14903 615 91%
c v 10.42 13 20 29 8364 138720 33306 50% 10 14838 615 91%
c w 10.58 13 20 29 8364 138720 33238 50% 10 14838 615 91%
c t 10.58 13 20 29 8364 138720 33237 50% 10 14838 615 91%
c e 10.60 13 20 29 8364 138720 32259 50% 10 14839 613 90%
c s 10.61 13 20 29 8364 138720 32257 50% 10 14839 613 90%
c - 10.67 13 20 30 8364 139527 27111 49% 10 14839 613 90%
c d 10.70 13 20 30 8364 140007 27478 49% 10 14838 612 90%
c 2 10.71 13 20 30 8364 140007 27660 49% 10 14838 611 90%
c 
c  seconds  reductions       redundant   irredundant
c         MB     restarts           trail      variables
c          level      conflicts         glue       remaining
c 
c p 10.71 13 20 30 8364 140007 27672 49% 10 14838 611 90%
c - 11.37 12 20 31 8365 148827 27580 47% 10 14835 611 90%
c W 11.76 12 20 31 8366 153032 31002 46% 10 14835 611 90%
c - 12.28 15 20 32 8366 158429 28219 46% 10 14835 611 90%
c - 13.18 12 19 33 8367 168329 28707 44% 10 14835 611 90%
c I 13.41 12 19 33 8369 171034 31090 44% 10 14835 611 90%
c - 13.99 15 19 34 8373 178529 30768 44% 9 14835 611 90%
c p 14.12 15 19 34 8374 180007 32093 44% 10 14835 611 90%
c - 15.36 15 18 35 8380 189031 31640 45% 10 14835 611 90%
c B 15.47 15 18 35 8380 190036 32438 45% 9 14835 611 90%
c s 16.03 15 18 35 8381 193890 35065 45% 9 14821 611 90%
c v 16.21 15 18 35 8381 193890 35065 45% 9 14809 611 90%
c w 16.48 15 18 35 8381 193890 35021 45% 9 14809 611 90%
c e 16.49 15 18 35 8381 193890 35021 45% 9 14809 610 90%
c s 16.62 15 18 35 8381 193890 34493 45% 9 14786 610 90%
c - 17.49 16 18 36 8381 199831 32876 47% 9 14786 610 90%
c W 18.83 16 18 36 8388 210039 40913 48% 9 14786 610 90%
c - 18.96 16 18 37 8388 210931 33554 48% 9 14786 610 90%
c - 20.52 16 18 38 8395 222331 34625 50% 10 14786 610 90%
c d 20.85 16 18 38 8395 225007 36427 50% 10 14785 609 90%
c 
c  seconds  reductions       redundant   irredundant
c         MB     restarts           trail      variables
c          level      conflicts         glue       remaining
c 
c 3 20.85 16 18 38 8395 225007 36594 50% 10 14785 609 90%
c 3 20.85 16 18 38 8395 225007 36657 50% 10 14785 609 90%
c 2 20.86 16 18 38 8395 225007 36656 50% 10 14785 609 90%
c p 20.86 16 18 38 8395 225007 36667 50% 10 14785 609 90%
c O 21.58 16 17 38 8396 231040 40926 50% 10 14785 609 90%
c - 21.93 16 17 39 8397 234031 34609 50% 10 14785 609 90%
c - 23.43 13 17 40 8397 246032 35013 49% 10 14785 609 90%
c B 24.43 13 16 40 8398 253041 39918 49% 9 14785 609 90%
c ] 24.69 13 16 40 8398 255005 41468 49% 9 14785 609 90%
c { 24.69 13 19 40 8398 255005 41468 33% 8 14785 609 90%
c s 25.21 14 19 40 8675 258280 44210 33% 8 14779 609 90%
c v 25.40 14 19 40 8675 258280 44210 33% 8 14723 609 90%
c w 26.03 16 19 40 8675 258280 44201 33% 8 14723 609 90%
c e 26.06 16 19 40 8675 258280 44082 33% 8 14734 605 89%
c s 26.23 16 19 40 8675 258280 43782 33% 8 14721 605 89%
c e 26.24 16 19 40 8675 258280 43577 33% 8 14728 603 89%
c - 26.26 19 19 41 8687 258332 35704 33% 8 14728 603 89%
c i 26.43 19 19 41 8875 261304 38236 33% 8 14728 601 89%
c - 27.13 19 19 42 9269 270932 37972 33% 7 14708 601 89%
c 3 27.41 19 18 42 9481 275007 41654 33% 7 14708 601 89%
c 
c  seconds  reductions       redundant  irredundant
c         MB     restarts           trail     variables
c          level      conflicts         glue      remaining
c 
c p 27.42 19 18 42 9481 275007 41728 33% 7 14708 601 89%
c F 27.49 19 18 42 9581 276042 42595 33% 7 14708 601 89%
c - 28.27 19 18 43 10423 283838 41040 33% 7 14708 601 89%
c i 28.71 19 17 43 10644 288905 44705 33% 7 14708 600 88%
c - 29.74 22 17 44 11417 297038 41023 34% 7 14571 600 88%
c B 30.10 22 17 44 11926 300043 43588 34% 7 14571 600 88%
c i 30.47 22 17 44 12093 303169 46371 34% 7 14571 599 88%
c - 31.53 23 17 45 12543 310538 44220 35% 7 14543 599 88%
c - 33.61 23 17 46 14136 324339 47516 36% 7 14543 599 88%
c W 33.71 23 17 46 14136 325044 48125 36% 7 14543 599 88%
c 3 34.33 23 17 46 14501 330010 52711 36% 7 14543 599 88%
c 2 34.34 23 17 46 14501 330010 52710 36% 7 14543 599 88%
c p 34.34 23 17 46 14501 330010 52718 36% 7 14543 599 88%
c } 34.44 23 17 46 14603 330931 53526 36% 7 14543 599 88%
c 1 34.44 23 17 46 14603 330931 53526 36% 7 14543 599 88%
c 
c --- [ result ] -------------------------------------------------------------
c 
s SATISFIABLE
v -1 2 3 -4 -5 6 -7 8 -9 -10 11 12 -13 -14 15 -16 -17 -18 19 20 -21 22 23 24
v -25 26 27 -28 29 30 31 32 33 -34 35 36 -37 38 39 -40 -41 42 -43 44 45 46 -47
v 48 49 -50 51 52 -53 -54 -55 -56 -57 58 59 -60 -61 -62 63 64 65 -66 -67 -68
v 69 -70 -71 72 73 -74 -75 76 -77 78 79 -80 81 82 83 -84 85 86 -87 88 89 -90
v 91 92 -93 -94 -95 -96 -97 -98 -99 100 -101 102 103 -104 -105 106 107 -108
v 109 -110 111 -112 -113 114 115 116 -117 -118 -119 -120 -121 122 123 124 125
v -126 127 -128 129 -130 -131 132 -133 134 135 -136 -137 -138 139 -140 141
v -142 143 144 -145 146 147 -148 -149 -150 -151 -152 -153 -154 155 -156 -157
v 158 -159 -160 -161 162 163 -164 -165 -166 167 -168 -169 170 -171 -172 -173
v 174 175 176 -177 178 -179 180 -181 -182 -183 -184 185 -186 -187 188 -189 190
v 191 -192 -193 194 -195 -196 -197 -198 -199 -200 201 -202 -203 -204 -205 -206
v 207 -208 -209 210 -211 -212 -213 -214 -215 216 217 -218 -219 220 -221 222
v 223 -224 225 226 -227 -228 229 -230 -231 232 -233 234 -235 -236 237 -238 239
v -240 241 -242 -243 -244 -245 -246 -247 248 -249 -250 -251 -252 253 -254 255
v 256 -257 258 -259 260 261 -262 263 264 -265 -266 -267 268 -269 270 -271 -272
v -273 -274 -275 276 -277 -278 -279 -280 -281 282 283 -284 -285 286 -287 288
v -289 -290 -291 -292 293 -294 -295 -296 -297 298 -299 300 -301 -302 -303 -304
v -305 -306 -307 -308 -309 -310 -311 312 313 -314 -315 316 -317 -318 -319 320
v -321 -322 -323 324 -325 326 -327 328 329 330 -331 332 -333 -334 -335 -336
v 337 -338 -339 -340 -341 342 343 -344 345 -346 -347 -348 349 -350 351 352
v -353 354 355 -356 357 -358 -359 360 361 -362 363 -364 -365 366 367 368 -369
v -370 -371 372 -373 -374 -375 376 -377 -378 -379 380 381 -382 383 384 385 386
v -387 388 -389 -390 -391 -392 -393 -394 -395 -396 -397 -398 -399 400 401 -402
v -403 404 -405 -406 407 -408 -409 410 -411 412 413 -414 -415 -416 -417 -418
v -419 -420 421 -422 423 -424 425 -426 -427 -428 -429 430 431 -432 -433 -434
v -435 436 -437 -438 439 -440 -441 -442 -443 -444 -445 -446 -447 -448 -449
v -450 -451 -452 453 -454 -455 456 457 458 459 -460 461 462 -463 -464 465 -466
v -467 468 -469 470 471 -472 -473 474 475 -476 -477 478 -479 -480 -481 -482
v -483 -484 -485 486 487 -488 489 490 -491 -492 493 494 -495 -496 -497 -498
v -499 -500 -501 -502 -503 504 -505 506 -507 -508 -509 -510 -511 512 -513 514
v -515 -516 517 -518 519 -520 -521 -522 523 524 525 -526 -527 -528 -529 -530
v 531 532 -533 534 -535 536 -537 -538 -539 -540 -541 542 -543 -544 545 -546
v 547 -548 549 -550 -551 -552 -553 -554 -555 -556 -557 558 -559 560 561 562
v 563 -564 565 -566 -567 -568 569 570 -571 572 -573 574 575 -576 577 578 -579
v 580 -581 582 -583 -584 585 586 587 -588 -589 -590 -591 592 -593 594 595 596
v 597 -598 599 -600 -601 602 -603 604 605 -606 607 -608 -609 -610 611 -612 613
v -614 615 616 -617 -618 619 620 -621 622 -623 624 -625 -626 -627 -628 -629
v -630 631 -632 633 -634 635 636 637 638 -639 640 -641 642 -643 -644 -645 -646
v -647 -648 -649 650 -651 -652 -653 654 -655 -656 -657 658 -659 660 -661 662
v -663 -664 -665 -666 667 668 -669 670 -671 672 673 -674 -675 -676 -677 -678
v -679 0
c 
c --- [ run-time profiling ] -------------------------------------------------
c 
c process time taken by individual solving procedures
c (percentage relative to process time for solving)
c 
c        30.68   89.14% search
c        24.64   71.59% propagate
c        16.97   49.31% stable
c        13.41   38.95% unstable
c         4.90   14.24% analyze
c         3.74   10.86% simplify
c         2.54    7.37% vivify
c         1.53    4.44% bump
c         1.21    3.51% minimize
c         0.88    2.55% subsume
c         0.52    1.51% decide
c         0.32    0.94% reduce
c         0.30    0.87% walk
c         0.26    0.74% collect
c         0.20    0.58% elim
c         0.09    0.27% connect
c         0.06    0.17% decompose
c         0.03    0.10% ternary
c         0.03    0.08% probe
c         0.02    0.06% parse
c         0.02    0.05% restart
c         0.01    0.02% transred
c         0.00    0.01% backward
c         0.00    0.01% deduplicate
c         0.00    0.00% lucky
c         0.00    0.00% copy
c         0.00    0.00% extend
c   =================================
c        34.42   99.93% solve
c 
c last line shows process time for solving
c (percentage relative to total process time)
c 
c --- [ statistics ] ---------------------------------------------------------
c 
c chronological:             30527         9.22 %  of conflicts
c conflicts:                330931      9614.47    per second
c decisions:                538237     15637.29    per second
c eliminated:                   24         3.53 %  of all variables
c fixed:                        41         6.04 %  of all variables
c learned:                  327731        99.03 %  per conflict
c minimized:               3491257        34.15 %  learned literals
c propagations:           27838934         0.81 M  per second
c reduced:                  214856        64.92 %  per conflict
c rephased:                     25     13237.24    interval
c restarts:                  14603        22.66    interval
c stabilizing:                   4        51.37 %  of conflicts
c substituted:                  14         2.06 %  of all variables
c subsumed:                  54636         7.64 %  of all clauses
c strengthened:              29087         4.07 %  of all clauses
c ternary:                    2308         1.70 %  of resolved
c vivified:                   9684         1.35 %  of all clauses
c walked:                        7     47275.86    interval
c weakened:                    157         2.81    average size
c 
c seconds are measured in process time for solving
c 
c --- [ resources ] ----------------------------------------------------------
c 
c total process time since initialization:        34.44    seconds
c total real time since initialization:           34.55    seconds
c maximum resident set size of process:           26.45    MB
c 
c --- [ shutting down ] ------------------------------------------------------
c 
c exit 10
